SCIP version 9.0.0 [precision: 8 byte] [memory: block] [mode: optimized] [LP solver: Soplex 7.0.0] [GitHash: 7205bedd94]
Copyright (c) 2002-2024 Zuse Institute Berlin (ZIB)

External libraries: 
  Soplex 7.0.0         Linear Programming Solver developed at Zuse Institute Berlin (soplex.zib.de) [GitHash: 6657fb3b]
  CppAD 20180000.0     Algorithmic Differentiation of C++ algorithms developed by B. Bell (github.com/coin-or/CppAD)
  ZLIB 1.2.13          General purpose compression library by J. Gailly and M. Adler (zlib.net)
  GMP 6.3.0            GNU Multiple Precision Arithmetic Library developed by T. Granlund (gmplib.org)
  ZIMPL 3.5.3          Zuse Institute Mathematical Programming Language developed by T. Koch (zimpl.zib.de)
  AMPL/MP 690e9e7      AMPL .nl file reader library (github.com/ampl/mp)
  PaPILO 2.2.0         parallel presolve for integer and linear optimization (github.com/scipopt/papilo) (built with TBB) [GitHash: df30ae49]
  bliss 0.77           Computing Graph Automorphism Groups by T. Junttila and P. Kaski (users.aalto.fi/~tjunttil/bliss)
  Ipopt 3.14.15        Interior Point Optimizer developed by A. Waechter et.al. (github.com/coin-or/Ipopt)

reading user parameter file </var/folders/xx/fsz3wvqx27n46ckqdt6dl4gm0000gn/T/565e92e0be4f432f92d5a44d02da9a08-pulp.set>


read problem </var/folders/xx/fsz3wvqx27n46ckqdt6dl4gm0000gn/T/565e92e0be4f432f92d5a44d02da9a08-pulp.lp>
============

original problem has 77 variables (70 bin, 6 int, 0 impl, 1 cont) and 113 constraints

presolving:
(round 1, fast)       1 del vars, 1 del conss, 1 add conss, 9 chg bounds, 0 chg sides, 0 chg coeffs, 0 upgd conss, 0 impls, 7 clqs
(round 2, fast)       1 del vars, 1 del conss, 1 add conss, 9 chg bounds, 0 chg sides, 21 chg coeffs, 0 upgd conss, 0 impls, 7 clqs
   (0.0s) running MILP presolver
   (0.0s) MILP presolver found nothing
(round 3, exhaustive) 1 del vars, 1 del conss, 1 add conss, 9 chg bounds, 0 chg sides, 21 chg coeffs, 105 upgd conss, 0 impls, 7 clqs
   (0.0s) sparsify finished: 80/715 (11.2%) nonzeros canceled - in total 80 canceled nonzeros, 146 changed coefficients, 0 added nonzeros
(round 4, exhaustive) 1 del vars, 1 del conss, 1 add conss, 9 chg bounds, 0 chg sides, 167 chg coeffs, 105 upgd conss, 0 impls, 21 clqs
(round 5, fast)       1 del vars, 1 del conss, 2 add conss, 10 chg bounds, 0 chg sides, 167 chg coeffs, 105 upgd conss, 0 impls, 21 clqs
(round 6, fast)       1 del vars, 1 del conss, 2 add conss, 11 chg bounds, 0 chg sides, 167 chg coeffs, 105 upgd conss, 0 impls, 21 clqs
(round 7, exhaustive) 1 del vars, 2 del conss, 2 add conss, 11 chg bounds, 1 chg sides, 167 chg coeffs, 105 upgd conss, 0 impls, 21 clqs
   (0.0s) probing cycle finished: starting next cycle
   (0.0s) symmetry computation started: requiring (bin +, int +, cont +), (fixed: bin -, int -, cont -)
   (0.0s) symmetry computation finished: 2 generators found (max: 1500, log10 of symmetry group size: 1.1) (symcode time: 0.00)
dynamic symmetry handling statistics:
   orbitopal reduction:       no components
   orbital reduction:          1 components of sizes 2
   lexicographic reduction:    2 permutations with support sizes 70, 64
handled 1 out of 1 symmetry components
presolving (8 rounds: 8 fast, 4 medium, 4 exhaustive):
 1 deleted vars, 2 deleted constraints, 2 added constraints, 11 tightened bounds, 0 added holes, 1 changed sides, 167 changed coefficients
 108 implications, 609 cliques
presolved problem has 76 variables (71 bin, 4 int, 1 impl, 0 cont) and 113 constraints
     14 constraints of type <knapsack>
      7 constraints of type <setppc>
      8 constraints of type <linear>
     84 constraints of type <logicor>
transformed objective value is always integral (scale: 1)
Presolving Time: 0.01

 time | node  | left  |LP iter|LP it/n|mem/heur|mdpt |vars |cons |rows |cuts |sepa|confs|strbr|  dualbound   | primalbound  |  gap   | compl. 
  0.0s|     1 |     0 |    30 |     - |  3413k |   0 |  76 | 126 | 113 |   0 |  0 |  12 |   0 | 0.000000e+00 |      --      |    Inf | unknown
  0.0s|     1 |     0 |   334 |     - |  3766k |   0 |  76 | 328 | 115 |   2 |  1 |  14 |   0 | 0.000000e+00 |      --      |    Inf | unknown
  0.0s|     1 |     0 |   346 |     - |  4470k |   0 |  76 | 330 | 116 |   3 |  2 |  16 |   0 | 0.000000e+00 |      --      |    Inf | unknown
  0.0s|     1 |     0 |   354 |     - |  5208k |   0 |  76 | 330 | 118 |   5 |  3 |  16 |   0 | 0.000000e+00 |      --      |    Inf | unknown
  0.0s|     1 |     0 |   370 |     - |  6159k |   0 |  76 | 330 | 122 |   9 |  4 |  16 |   0 | 0.000000e+00 |      --      |    Inf | unknown
  0.0s|     1 |     0 |   390 |     - |  7058k |   0 |  76 | 330 | 126 |  13 |  5 |  16 |   0 | 0.000000e+00 |      --      |    Inf | unknown
  0.0s|     1 |     0 |   409 |     - |  7977k |   0 |  76 | 330 | 128 |  15 |  6 |  16 |   0 | 0.000000e+00 |      --      |    Inf | unknown
  0.1s|     1 |     0 |   426 |     - |  9117k |   0 |  76 | 332 | 132 |  19 |  7 |  18 |   0 | 0.000000e+00 |      --      |    Inf | unknown
  0.1s|     1 |     0 |   457 |     - |    10M |   0 |  76 | 336 | 135 |  22 |  8 |  22 |   0 | 0.000000e+00 |      --      |    Inf | unknown
  0.1s|     1 |     0 |   476 |     - |    11M |   0 |  76 | 336 | 138 |  25 |  9 |  22 |   0 | 0.000000e+00 |      --      |    Inf | unknown
  0.1s|     1 |     0 |   485 |     - |    12M |   0 |  76 | 338 | 141 |  28 | 10 |  24 |   0 | 0.000000e+00 |      --      |    Inf | unknown
  0.1s|     1 |     0 |   494 |     - |    12M |   0 |  76 | 338 | 143 |  30 | 11 |  24 |   0 | 0.000000e+00 |      --      |    Inf | unknown
  0.1s|     1 |     0 |   494 |     - |    12M |   0 |  76 | 339 | 143 |  30 | 11 |  25 |   0 | 0.000000e+00 |      --      |    Inf | unknown
  0.1s|     1 |     0 |   509 |     - |    12M |   0 |  76 | 339 | 147 |  34 | 12 |  25 |   0 | 0.000000e+00 |      --      |    Inf | unknown
  0.1s|     1 |     0 |   529 |     - |    12M |   0 |  76 | 340 | 149 |  36 | 13 |  26 |   0 | 0.000000e+00 |      --      |    Inf | unknown
 time | node  | left  |LP iter|LP it/n|mem/heur|mdpt |vars |cons |rows |cuts |sepa|confs|strbr|  dualbound   | primalbound  |  gap   | compl. 
  0.1s|     1 |     0 |   539 |     - |    12M |   0 |  76 | 340 | 151 |  38 | 14 |  26 |   0 | 0.000000e+00 |      --      |    Inf | unknown
  0.1s|     1 |     0 |   550 |     - |    12M |   0 |  76 | 341 | 142 |  39 | 15 |  27 |   0 | 0.000000e+00 |      --      |    Inf | unknown
  0.1s|     1 |     0 |   571 |     - |    12M |   0 |  76 | 341 | 145 |  42 | 16 |  27 |   0 | 0.000000e+00 |      --      |    Inf | unknown
  0.1s|     1 |     0 |   580 |     - |    12M |   0 |  76 | 341 | 147 |  44 | 17 |  27 |   0 | 0.000000e+00 |      --      |    Inf | unknown
  0.1s|     1 |     0 |   591 |     - |    12M |   0 |  76 | 343 | 148 |  45 | 18 |  29 |   0 | 0.000000e+00 |      --      |    Inf | unknown
  0.1s|     1 |     0 |   604 |     - |    12M |   0 |  76 | 343 | 149 |  46 | 19 |  29 |   0 | 0.000000e+00 |      --      |    Inf | unknown
  0.1s|     1 |     0 |   612 |     - |    12M |   0 |  76 | 343 | 150 |  47 | 20 |  29 |   0 | 0.000000e+00 |      --      |    Inf | unknown
  0.1s|     1 |     0 |   734 |     - |    12M |   0 |  76 | 353 | 151 |  47 | 21 |  38 |  10 | 0.000000e+00 |      --      |    Inf | unknown
  0.1s|     1 |     0 |   741 |     - |    12M |   0 |  76 | 353 | 152 |  48 | 22 |  38 |  10 | 0.000000e+00 |      --      |    Inf | unknown
  0.1s|     1 |     0 |   754 |     - |    12M |   0 |  76 | 354 | 152 |  48 | 23 |  41 |  23 | 0.000000e+00 |      --      |    Inf | unknown
  0.1s|     1 |     2 |   754 |     - |    12M |   0 |  76 | 353 | 152 |  48 | 24 |  42 |  23 | 0.000000e+00 |      --      |    Inf | unknown
(run 1, node 1) restarting after 3 global fixings of integer variables

(restart) converted 38 cuts from the global cut pool into linear constraints

presolving:
(round 1, fast)       3 del vars, 8 del conss, 3 add conss, 0 chg bounds, 0 chg sides, 6 chg coeffs, 0 upgd conss, 108 impls, 586 clqs
(round 2, exhaustive) 3 del vars, 24 del conss, 3 add conss, 0 chg bounds, 14 chg sides, 6 chg coeffs, 0 upgd conss, 108 impls, 586 clqs
(round 3, exhaustive) 3 del vars, 24 del conss, 3 add conss, 0 chg bounds, 14 chg sides, 6 chg coeffs, 143 upgd conss, 108 impls, 586 clqs
(round 4, exhaustive) 3 del vars, 30 del conss, 3 add conss, 0 chg bounds, 14 chg sides, 6 chg coeffs, 143 upgd conss, 108 impls, 587 clqs
(round 5, exhaustive) 3 del vars, 37 del conss, 3 add conss, 0 chg bounds, 14 chg sides, 460 chg coeffs, 143 upgd conss, 108 impls, 587 clqs
(round 6, exhaustive) 3 del vars, 39 del conss, 3 add conss, 0 chg bounds, 14 chg sides, 460 chg coeffs, 143 upgd conss, 108 impls, 587 clqs
(round 7, exhaustive) 3 del vars, 39 del conss, 3 add conss, 0 chg bounds, 14 chg sides, 1134 chg coeffs, 143 upgd conss, 108 impls, 587 clqs
(round 8, exhaustive) 3 del vars, 46 del conss, 3 add conss, 0 chg bounds, 14 chg sides, 1139 chg coeffs, 143 upgd conss, 108 impls, 587 clqs
presolving (9 rounds: 9 fast, 8 medium, 8 exhaustive):
 3 deleted vars, 46 deleted constraints, 3 added constraints, 0 tightened bounds, 0 added holes, 14 changed sides, 1139 changed coefficients
 108 implications, 587 cliques
presolved problem has 73 variables (69 bin, 3 int, 1 impl, 0 cont) and 348 constraints
     16 constraints of type <knapsack>
     24 constraints of type <setppc>
     25 constraints of type <linear>
    215 constraints of type <logicor>
     68 constraints of type <bounddisjunction>
transformed objective value is always integral (scale: 1)
Presolving Time: 0.01

 time | node  | left  |LP iter|LP it/n|mem/heur|mdpt |vars |cons |rows |cuts |sepa|confs|strbr|  dualbound   | primalbound  |  gap   | compl. 
  0.1s|     1 |     0 |   789 |     - |    12M |   0 |  73 | 348 | 149 |   0 |  0 |  42 |  23 | 0.000000e+00 |      --      |    Inf | unknown
  0.2s|     1 |     0 |   807 |     - |    12M |   0 |  73 | 516 | 152 |   3 |  1 |  42 |  23 | 0.000000e+00 |      --      |    Inf | unknown
  0.2s|     1 |     0 |   818 |     - |    13M |   0 |  73 | 516 | 153 |   4 |  2 |  42 |  23 | 0.000000e+00 |      --      |    Inf | unknown
  0.2s|     1 |     0 |   833 |     - |    13M |   0 |  73 | 516 | 154 |   5 |  3 |  42 |  23 | 0.000000e+00 |      --      |    Inf | unknown
  0.2s|     1 |     0 |   851 |     - |    13M |   0 |  73 | 516 | 155 |   6 |  4 |  42 |  23 | 0.000000e+00 |      --      |    Inf | unknown
  0.2s|     1 |     0 |   873 |     - |    13M |   0 |  73 | 517 | 157 |   8 |  5 |  43 |  23 | 0.000000e+00 |      --      |    Inf | unknown
  0.2s|     1 |     0 |   886 |     - |    13M |   0 |  73 | 518 | 159 |  10 |  6 |  44 |  23 | 0.000000e+00 |      --      |    Inf | unknown
  0.2s|     1 |     0 |   910 |     - |    14M |   0 |  73 | 518 | 161 |  12 |  7 |  44 |  23 | 0.000000e+00 |      --      |    Inf | unknown
  0.2s|     1 |     0 |   938 |     - |    15M |   0 |  73 | 520 | 164 |  15 |  8 |  46 |  23 | 0.000000e+00 |      --      |    Inf | unknown
  0.2s|     1 |     0 |   952 |     - |    15M |   0 |  73 | 520 | 167 |  18 |  9 |  46 |  23 | 0.000000e+00 |      --      |    Inf | unknown
  0.2s|     1 |     0 |   976 |     - |    17M |   0 |  73 | 520 | 169 |  20 | 10 |  46 |  23 | 0.000000e+00 |      --      |    Inf | unknown
  0.2s|     1 |     0 |   990 |     - |    17M |   0 |  73 | 521 | 173 |  24 | 11 |  47 |  23 | 0.000000e+00 |      --      |    Inf | unknown
  0.2s|     1 |     0 |  1000 |     - |    17M |   0 |  73 | 522 | 175 |  26 | 12 |  48 |  23 | 0.000000e+00 |      --      |    Inf | unknown
  0.2s|     1 |     0 |  1163 |     - |    17M |   0 |  73 | 480 | 176 |  26 | 12 |  54 |  37 | 0.000000e+00 |      --      |    Inf | unknown
  0.2s|     1 |     0 |  1173 |     - |    17M |   0 |  73 | 480 | 146 |  27 | 13 |  54 |  37 | 0.000000e+00 |      --      |    Inf | unknown
 time | node  | left  |LP iter|LP it/n|mem/heur|mdpt |vars |cons |rows |cuts |sepa|confs|strbr|  dualbound   | primalbound  |  gap   | compl. 
  0.2s|     1 |     0 |  1178 |     - |    17M |   0 |  73 | 480 | 147 |  28 | 14 |  54 |  37 | 0.000000e+00 |      --      |    Inf | unknown
  0.2s|     1 |     2 |  1181 |     - |    17M |   0 |  73 | 481 | 147 |  28 | 14 |  55 |  39 | 0.000000e+00 |      --      |    Inf | unknown

SCIP Status        : problem is solved [infeasible]
Solving Time (sec) : 0.29
Solving Nodes      : 39 (total of 40 nodes in 2 runs)
Primal Bound       : +1.00000000000000e+20 (0 solutions)
Dual Bound         : +1.00000000000000e+20
Gap                : 0.00 %


solution status: infeasible
no solution available
written solution information to file </var/folders/xx/fsz3wvqx27n46ckqdt6dl4gm0000gn/T/565e92e0be4f432f92d5a44d02da9a08-pulp.sol>


